200
150
120
120
120
120
120
119
119
119
119
119
118
118
117
117
116
113
111
111
110
110
110
109
109
109
108
108
108
107
106
105
105
105
105
105
104
104
104
103
102
102
102
102
101
101
99
98
98
97
96
96
96
94
93
92
91
91
90
89
89
87
87
87
87
87
86
85
85
84
84
84
83
82
82
81
80
80
79
78
78
78
78
78
78
76
75
75
74
74
73
73
71
71
71
71
70
70
70
70
70
69
69
69
68
68
68
67
67
67
67
66
64
63
63
62
61
61
60
60
59
57
57
56
56
55
53
53
53
52
52
52
51
50
49
48
48
48
47
46
45
45
44
43
43
42
42
41
41
40
40
40
40
39
38
38
38
37
36
35
35
35
35
34
33
33
33
32
31
30
30
30
29
28
28
27
27
26
26
25
25
24
24
23
23
21
20
20
20
19
19
18
18
18
17
17
16
15
15
15
15
15
